70
1 0 33
2 0 266
2 1 318
3 0 209
3 1 58
3 2 219
4 0 68
4 1 165
4 2 174
4 3 23
5 0 94
5 1 39
5 2 306
5 3 284
5 4 277
6 0 203
6 1 129
6 2 35
6 3 295
6 4 241
6 5 296
7 0 288
7 1 36
7 2 196
7 3 317
7 4 114
7 5 32
7 6 144
8 0 59
8 1 33
8 2 132
8 3 303
8 4 117
8 5 28
8 6 150
8 7 49
9 0 189
9 1 75
9 2 246
9 3 111
9 4 114
9 5 276
9 6 143
9 7 91
9 8 23
10 0 314
10 1 202
10 2 210
10 3 243
10 4 291
10 5 111
10 6 243
10 7 114
10 8 257
10 9 281
11 0 199
11 1 69
11 2 11
11 3 266
11 4 50
11 5 194
11 6 167
11 7 110
11 8 18
11 9 90
11 10 152
12 0 45
12 1 154
12 2 167
12 3 35
12 4 128
12 5 265
12 6 43
12 7 92
12 8 204
12 9 11
12 10 105
12 11 77
13 0 21
13 1 81
13 2 157
13 3 219
13 4 44
13 5 288
13 6 71
13 7 27
13 8 67
13 9 100
13 10 62
13 11 279
13 12 182
14 0 183
14 1 227
14 2 262
14 3 81
14 4 83
14 5 306
14 6 290
14 7 123
14 8 46
14 9 129
14 10 129
14 11 309
14 12 26
14 13 257
15 0 314
15 1 109
15 2 210
15 3 233
15 4 19
15 5 256
15 6 101
15 7 215
15 8 239
15 9 3
15 10 11
15 11 16
15 12 10
15 13 80
15 14 242
16 0 227
16 1 37
16 2 203
16 3 50
16 4 236
16 5 14
16 6 258
16 7 155
16 8 229
16 9 6
16 10 250
16 11 161
16 12 209
16 13 9
16 14 297
16 15 254
17 0 95
17 1 226
17 2 87
17 3 307
17 4 177
17 5 181
17 6 185
17 7 151
17 8 52
17 9 314
17 10 301
17 11 66
17 12 300
17 13 188
17 14 258
17 15 298
17 16 40
18 0 311
18 1 215
18 2 74
18 3 256
18 4 257
18 5 282
18 6 230
18 7 81
18 8 269
18 9 82
18 10 144
18 11 265
18 12 116
18 13 156
18 14 286
18 15 227
18 16 10
18 17 170
19 0 302
19 1 165
19 2 82
19 3 142
19 4 236
19 5 251
19 6 152
19 7 110
19 8 100
19 9 221
19 10 316
19 11 164
19 12 117
19 13 179
19 14 89
19 15 251
19 16 203
19 17 320
19 18 292
20 0 229
20 1 217
20 2 254
20 3 139
20 4 78
20 5 16
20 6 252
20 7 290
20 8 238
20 9 58
20 10 146
20 11 315
20 12 246
20 13 142
20 14 292
20 15 217
20 16 279
20 17 57
20 18 145
20 19 58
21 0 70
21 1 239
21 2 2
21 3 131
21 4 314
21 5 257
21 6 4
21 7 52
21 8 224
21 9 117
21 10 198
21 11 18
21 12 22
21 13 141
21 14 79
21 15 183
21 16 270
21 17 64
21 18 268
21 19 301
21 20 275
22 0 2
22 1 136
22 2 223
22 3 108
22 4 253
22 5 253
22 6 21
22 7 301
22 8 181
22 9 116
22 10 190
22 11 97
22 12 23
22 13 193
22 14 208
22 15 308
22 16 273
22 17 173
22 18 220
22 19 300
22 20 81
22 21 82
23 0 138
23 1 118
23 2 42
23 3 118
23 4 118
23 5 312
23 6 92
23 7 290
23 8 60
23 9 68
23 10 289
23 11 41
23 12 25
23 13 142
23 14 151
23 15 30
23 16 1
23 17 153
23 18 9
23 19 37
23 20 121
23 21 75
23 22 213
24 0 125
24 1 245
24 2 159
24 3 209
24 4 133
24 5 164
24 6 300
24 7 194
24 8 316
24 9 136
24 10 284
24 11 175
24 12 289
24 13 306
24 14 170
24 15 269
24 16 219
24 17 146
24 18 176
24 19 86
24 20 281
24 21 145
24 22 102
24 23 251
25 0 263
25 1 26
25 2 71
25 3 227
25 4 286
25 5 12
25 6 225
25 7 122
25 8 203
25 9 236
25 10 25
25 11 166
25 12 86
25 13 175
25 14 80
25 15 279
25 16 168
25 17 81
25 18 279
25 19 271
25 20 243
25 21 43
25 22 174
25 23 63
25 24 250
26 0 97
26 1 46
26 2 1
26 3 294
26 4 76
26 5 115
26 6 156
26 7 59
26 8 179
26 9 314
26 10 139
26 11 196
26 12 185
26 13 198
26 14 61
26 15 27
26 16 37
26 17 256
26 18 191
26 19 81
26 20 198
26 21 213
26 22 92
26 23 120
26 24 200
26 25 230
27 0 57
27 1 48
27 2 6
27 3 106
27 4 47
27 5 286
27 6 223
27 7 306
27 8 55
27 9 191
27 10 183
27 11 93
27 12 150
27 13 246
27 14 4
27 15 250
27 16 111
27 17 25
27 18 49
27 19 78
27 20 278
27 21 53
27 22 222
27 23 167
27 24 172
27 25 63
27 26 36
28 0 122
28 1 175
28 2 314
28 3 127
28 4 42
28 5 112
28 6 242
28 7 228
28 8 208
28 9 189
28 10 304
28 11 212
28 12 250
28 13 213
28 14 165
28 15 2
28 16 103
28 17 123
28 18 216
28 19 317
28 20 9
28 21 185
28 22 42
28 23 230
28 24 121
28 25 198
28 26 34
28 27 46
29 0 7
29 1 43
29 2 245
29 3 203
29 4 52
29 5 142
29 6 289
29 7 72
29 8 84
29 9 154
29 10 282
29 11 304
29 12 278
29 13 68
29 14 88
29 15 302
29 16 133
29 17 271
29 18 222
29 19 39
29 20 99
29 21 106
29 22 224
29 23 215
29 24 214
29 25 289
29 26 265
29 27 225
29 28 157
30 0 240
30 1 34
30 2 222
30 3 47
30 4 315
30 5 198
30 6 216
30 7 154
30 8 173
30 9 304
30 10 73
30 11 281
30 12 213
30 13 194
30 14 243
30 15 33
30 16 35
30 17 235
30 18 210
30 19 257
30 20 69
30 21 228
30 22 70
30 23 286
30 24 159
30 25 149
30 26 169
30 27 106
30 28 127
30 29 183
31 0 207
31 1 284
31 2 103
31 3 159
31 4 246
31 5 314
31 6 49
31 7 176
31 8 80
31 9 224
31 10 260
31 11 112
31 12 205
31 13 166
31 14 199
31 15 305
31 16 36
31 17 126
31 18 149
31 19 292
31 20 304
31 21 62
31 22 19
31 23 282
31 24 306
31 25 218
31 26 260
31 27 189
31 28 312
31 29 160
31 30 27
32 0 90
32 1 279
32 2 280
32 3 259
32 4 286
32 5 208
32 6 316
32 7 260
32 8 214
32 9 183
32 10 63
32 11 100
32 12 290
32 13 151
32 14 206
32 15 110
32 16 9
32 17 190
32 18 271
32 19 66
32 20 76
32 21 210
32 22 100
32 23 36
32 24 123
32 25 3
32 26 121
32 27 198
32 28 272
32 29 8
32 30 209
32 31 192
33 0 174
33 1 43
33 2 288
33 3 240
33 4 109
33 5 44
33 6 56
33 7 296
33 8 171
33 9 224
33 10 177
33 11 264
33 12 48
33 13 50
33 14 257
33 15 248
33 16 62
33 17 12
33 18 252
33 19 209
33 20 55
33 21 305
33 22 159
33 23 68
33 24 144
33 25 234
33 26 307
33 27 99
33 28 101
33 29 303
33 30 142
33 31 271
33 32 250
34 0 86
34 1 229
34 2 131
34 3 157
34 4 64
34 5 82
34 6 279
34 7 104
34 8 61
34 9 217
34 10 167
34 11 157
34 12 69
34 13 247
34 14 141
34 15 66
34 16 65
34 17 298
34 18 56
34 19 108
34 20 5
34 21 276
34 22 305
34 23 159
34 24 256
34 25 263
34 26 318
34 27 170
34 28 298
34 29 264
34 30 208
34 31 123
34 32 277
34 33 171
35 0 137
35 1 236
35 2 202
35 3 254
35 4 38
35 5 317
35 6 245
35 7 317
35 8 197
35 9 122
35 10 290
35 11 235
35 12 41
35 13 125
35 14 135
35 15 172
35 16 272
35 17 222
35 18 216
35 19 148
35 20 111
35 21 94
35 22 285
35 23 302
35 24 50
35 25 209
35 26 231
35 27 74
35 28 133
35 29 285
35 30 292
35 31 61
35 32 156
35 33 125
35 34 228
36 0 115
36 1 284
36 2 130
36 3 306
36 4 180
36 5 9
36 6 154
36 7 286
36 8 132
36 9 168
36 10 252
36 11 80
36 12 175
36 13 40
36 14 219
36 15 22
36 16 138
36 17 152
36 18 36
36 19 100
36 20 9
36 21 99
36 22 197
36 23 98
36 24 233
36 25 250
36 26 43
36 27 145
36 28 91
36 29 306
36 30 262
36 31 276
36 32 225
36 33 251
36 34 170
36 35 246
37 0 89
37 1 8
37 2 252
37 3 284
37 4 78
37 5 284
37 6 98
37 7 43
37 8 244
37 9 147
37 10 128
37 11 100
37 12 51
37 13 46
37 14 284
37 15 218
37 16 217
37 17 208
37 18 92
37 19 172
37 20 50
37 21 88
37 22 126
37 23 78
37 24 113
37 25 177
37 26 197
37 27 94
37 28 284
37 29 155
37 30 181
37 31 107
37 32 317
37 33 286
37 34 262
37 35 98
37 36 169
38 0 218
38 1 284
38 2 19
38 3 317
38 4 317
38 5 231
38 6 44
38 7 139
38 8 176
38 9 121
38 10 179
38 11 173
38 12 228
38 13 197
38 14 261
38 15 99
38 16 313
38 17 180
38 18 134
38 19 4
38 20 1
38 21 240
38 22 216
38 23 147
38 24 116
38 25 35
38 26 185
38 27 217
38 28 187
38 29 242
38 30 301
38 31 186
38 32 83
38 33 210
38 34 68
38 35 66
38 36 63
38 37 157
39 0 177
39 1 192
39 2 295
39 3 98
39 4 42
39 5 148
39 6 9
39 7 255
39 8 235
39 9 22
39 10 55
39 11 91
39 12 41
39 13 42
39 14 223
39 15 230
39 16 249
39 17 194
39 18 54
39 19 98
39 20 271
39 21 193
39 22 120
39 23 192
39 24 193
39 25 285
39 26 161
39 27 27
39 28 202
39 29 222
39 30 172
39 31 210
39 32 165
39 33 230
39 34 60
39 35 171
39 36 270
39 37 209
39 38 252
40 0 139
40 1 235
40 2 184
40 3 320
40 4 45
40 5 67
40 6 308
40 7 105
40 8 228
40 9 46
40 10 96
40 11 216
40 12 6
40 13 193
40 14 146
40 15 169
40 16 106
40 17 249
40 18 92
40 19 153
40 20 43
40 21 276
40 22 72
40 23 39
40 24 141
40 25 179
40 26 231
40 27 202
40 28 66
40 29 24
40 30 267
40 31 155
40 32 217
40 33 245
40 34 120
40 35 39
40 36 247
40 37 269
40 38 103
40 39 185
41 0 247
41 1 233
41 2 152
41 3 108
41 4 310
41 5 16
41 6 170
41 7 300
41 8 21
41 9 93
41 10 27
41 11 31
41 12 137
41 13 201
41 14 64
41 15 113
41 16 155
41 17 154
41 18 182
41 19 173
41 20 291
41 21 247
41 22 129
41 23 187
41 24 126
41 25 301
41 26 188
41 27 117
41 28 21
41 29 61
41 30 236
41 31 239
41 32 298
41 33 183
41 34 49
41 35 301
41 36 287
41 37 257
41 38 277
41 39 255
41 40 68
42 0 307
42 1 74
42 2 249
42 3 126
42 4 147
42 5 259
42 6 192
42 7 3
42 8 312
42 9 128
42 10 278
42 11 268
42 12 42
42 13 186
42 14 52
42 15 102
42 16 60
42 17 15
42 18 126
42 19 92
42 20 26
42 21 192
42 22 139
42 23 123
42 24 142
42 25 203
42 26 87
42 27 233
42 28 174
42 29 130
42 30 78
42 31 198
42 32 76
42 33 158
42 34 28
42 35 138
42 36 123
42 37 58
42 38 271
42 39 311
42 40 96
42 41 225
43 0 286
43 1 298
43 2 75
43 3 185
43 4 188
43 5 68
43 6 293
43 7 151
43 8 113
43 9 79
43 10 205
43 11 103
43 12 53
43 13 207
43 14 160
43 15 200
43 16 243
43 17 230
43 18 216
43 19 51
43 20 7
43 21 239
43 22 288
43 23 186
43 24 132
43 25 17
43 26 176
43 27 178
43 28 109
43 29 72
43 30 298
43 31 144
43 32 277
43 33 16
43 34 230
43 35 236
43 36 49
43 37 5
43 38 213
43 39 197
43 40 169
43 41 149
43 42 309
44 0 161
44 1 25
44 2 222
44 3 304
44 4 131
44 5 46
44 6 196
44 7 312
44 8 114
44 9 47
44 10 259
44 11 213
44 12 104
44 13 194
44 14 21
44 15 289
44 16 137
44 17 83
44 18 214
44 19 68
44 20 88
44 21 214
44 22 36
44 23 135
44 24 227
44 25 239
44 26 3
44 27 242
44 28 133
44 29 2
44 30 100
44 31 245
44 32 23
44 33 179
44 34 43
44 35 224
44 36 2
44 37 39
44 38 256
44 39 84
44 40 190
44 41 174
44 42 301
44 43 281
45 0 261
45 1 207
45 2 224
45 3 269
45 4 225
45 5 116
45 6 130
45 7 9
45 8 197
45 9 155
45 10 86
45 11 15
45 12 188
45 13 160
45 14 310
45 15 309
45 16 53
45 17 103
45 18 55
45 19 10
45 20 143
45 21 289
45 22 115
45 23 3
45 24 100
45 25 3
45 26 153
45 27 12
45 28 2
45 29 229
45 30 110
45 31 48
45 32 186
45 33 95
45 34 250
45 35 275
45 36 274
45 37 208
45 38 288
45 39 142
45 40 279
45 41 138
45 42 16
45 43 261
45 44 26
46 0 144
46 1 100
46 2 51
46 3 211
46 4 41
46 5 193
46 6 220
46 7 226
46 8 312
46 9 223
46 10 53
46 11 88
46 12 129
46 13 256
46 14 49
46 15 133
46 16 127
46 17 145
46 18 7
46 19 232
46 20 242
46 21 283
46 22 70
46 23 29
46 24 6
46 25 44
46 26 116
46 27 183
46 28 75
46 29 167
46 30 39
46 31 212
46 32 62
46 33 88
46 34 310
46 35 112
46 36 268
46 37 154
46 38 76
46 39 231
46 40 276
46 41 183
46 42 36
46 43 11
46 44 263
46 45 10
47 0 148
47 1 154
47 2 67
47 3 26
47 4 200
47 5 29
47 6 103
47 7 156
47 8 190
47 9 159
47 10 292
47 11 247
47 12 62
47 13 166
47 14 280
47 15 142
47 16 62
47 17 231
47 18 174
47 19 16
47 20 138
47 21 162
47 22 93
47 23 55
47 24 141
47 25 105
47 26 172
47 27 212
47 28 43
47 29 30
47 30 119
47 31 228
47 32 153
47 33 278
47 34 101
47 35 189
47 36 103
47 37 131
47 38 12
47 39 40
47 40 234
47 41 64
47 42 315
47 43 94
47 44 161
47 45 301
47 46 82
48 0 135
48 1 237
48 2 235
48 3 57
48 4 302
48 5 210
48 6 119
48 7 128
48 8 217
48 9 305
48 10 154
48 11 161
48 12 18
48 13 155
48 14 147
48 15 131
48 16 261
48 17 9
48 18 127
48 19 28
48 20 11
48 21 122
48 22 152
48 23 113
48 24 178
48 25 37
48 26 165
48 27 242
48 28 54
48 29 211
48 30 213
48 31 270
48 32 24
48 33 199
48 34 129
48 35 101
48 36 176
48 37 153
48 38 102
48 39 263
48 40 255
48 41 316
48 42 131
48 43 145
48 44 127
48 45 21
48 46 260
48 47 58
49 0 283
49 1 292
49 2 64
49 3 237
49 4 102
49 5 199
49 6 88
49 7 251
49 8 290
49 9 193
49 10 38
49 11 84
49 12 5
49 13 161
49 14 85
49 15 107
49 16 57
49 17 159
49 18 265
49 19 112
49 20 283
49 21 37
49 22 320
49 23 191
49 24 88
49 25 312
49 26 244
49 27 299
49 28 18
49 29 24
49 30 208
49 31 158
49 32 68
49 33 179
49 34 279
49 35 4
49 36 117
49 37 22
49 38 56
49 39 183
49 40 266
49 41 33
49 42 60
49 43 230
49 44 240
49 45 320
49 46 68
49 47 99
49 48 264
50 0 151
50 1 208
50 2 165
50 3 177
50 4 263
50 5 166
50 6 261
50 7 309
50 8 66
50 9 251
50 10 318
50 11 89
50 12 210
50 13 146
50 14 117
50 15 316
50 16 216
50 17 206
50 18 258
50 19 82
50 20 198
50 21 14
50 22 102
50 23 216
50 24 70
50 25 180
50 26 56
50 27 235
50 28 286
50 29 11
50 30 284
50 31 187
50 32 248
50 33 69
50 34 175
50 35 290
50 36 174
50 37 180
50 38 88
50 39 316
50 40 164
50 41 148
50 42 271
50 43 111
50 44 183
50 45 273
50 46 220
50 47 145
50 48 294
50 49 167
51 0 272
51 1 127
51 2 221
51 3 140
51 4 216
51 5 198
51 6 290
51 7 292
51 8 53
51 9 305
51 10 118
51 11 153
51 12 123
51 13 211
51 14 127
51 15 233
51 16 106
51 17 62
51 18 187
51 19 188
51 20 42
51 21 282
51 22 286
51 23 216
51 24 164
51 25 233
51 26 267
51 27 239
51 28 276
51 29 16
51 30 170
51 31 142
51 32 113
51 33 216
51 34 280
51 35 237
51 36 310
51 37 271
51 38 43
51 39 280
51 40 120
51 41 49
51 42 222
51 43 211
51 44 310
51 45 10
51 46 243
51 47 132
51 48 180
51 49 232
51 50 78
52 0 303
52 1 177
52 2 243
52 3 63
52 4 114
52 5 160
52 6 76
52 7 125
52 8 160
52 9 155
52 10 191
52 11 5
52 12 144
52 13 211
52 14 193
52 15 193
52 16 104
52 17 280
52 18 222
52 19 173
52 20 71
52 21 92
52 22 1
52 23 287
52 24 72
52 25 102
52 26 202
52 27 113
52 28 210
52 29 130
52 30 6
52 31 159
52 32 22
52 33 123
52 34 149
52 35 244
52 36 211
52 37 140
52 38 61
52 39 242
52 40 26
52 41 313
52 42 137
52 43 251
52 44 266
52 45 292
52 46 158
52 47 255
52 48 226
52 49 23
52 50 257
52 51 26
53 0 4
53 1 270
53 2 80
53 3 128
53 4 160
53 5 88
53 6 157
53 7 134
53 8 59
53 9 47
53 10 307
53 11 200
53 12 191
53 13 256
53 14 237
53 15 26
53 16 31
53 17 236
53 18 179
53 19 218
53 20 68
53 21 86
53 22 178
53 23 259
53 24 87
53 25 225
53 26 193
53 27 168
53 28 224
53 29 285
53 30 93
53 31 223
53 32 242
53 33 31
53 34 284
53 35 222
53 36 208
53 37 160
53 38 286
53 39 186
53 40 63
53 41 269
53 42 310
53 43 286
53 44 179
53 45 307
53 46 114
53 47 144
53 48 225
53 49 85
53 50 43
53 51 259
53 52 174
54 0 136
54 1 265
54 2 92
54 3 11
54 4 233
54 5 94
54 6 211
54 7 186
54 8 315
54 9 285
54 10 305
54 11 179
54 12 280
54 13 93
54 14 316
54 15 268
54 16 43
54 17 172
54 18 168
54 19 173
54 20 316
54 21 43
54 22 64
54 23 166
54 24 210
54 25 96
54 26 203
54 27 63
54 28 312
54 29 215
54 30 104
54 31 253
54 32 102
54 33 25
54 34 94
54 35 28
54 36 143
54 37 59
54 38 170
54 39 77
54 40 308
54 41 37
54 42 231
54 43 92
54 44 138
54 45 124
54 46 275
54 47 121
54 48 146
54 49 219
54 50 201
54 51 275
54 52 55
54 53 125
55 0 232
55 1 232
55 2 319
55 3 290
55 4 163
55 5 42
55 6 184
55 7 20
55 8 198
55 9 290
55 10 92
55 11 93
55 12 140
55 13 91
55 14 236
55 15 98
55 16 188
55 17 105
55 18 22
55 19 135
55 20 261
55 21 230
55 22 32
55 23 259
55 24 295
55 25 287
55 26 167
55 27 104
55 28 204
55 29 238
55 30 234
55 31 214
55 32 190
55 33 89
55 34 8
55 35 8
55 36 237
55 37 17
55 38 63
55 39 150
55 40 299
55 41 71
55 42 252
55 43 240
55 44 164
55 45 161
55 46 176
55 47 87
55 48 16
55 49 138
55 50 266
55 51 110
55 52 207
55 53 226
55 54 306
56 0 17
56 1 150
56 2 154
56 3 271
56 4 106
56 5 103
56 6 289
56 7 128
56 8 14
56 9 171
56 10 90
56 11 130
56 12 57
56 13 132
56 14 208
56 15 7
56 16 160
56 17 10
56 18 199
56 19 15
56 20 64
56 21 54
56 22 259
56 23 183
56 24 132
56 25 180
56 26 68
56 27 227
56 28 215
56 29 288
56 30 102
56 31 151
56 32 201
56 33 44
56 34 267
56 35 13
56 36 196
56 37 38
56 38 96
56 39 311
56 40 287
56 41 169
56 42 320
56 43 22
56 44 229
56 45 226
56 46 296
56 47 310
56 48 116
56 49 271
56 50 217
56 51 233
56 52 320
56 53 177
56 54 196
56 55 281
57 0 305
57 1 277
57 2 183
57 3 244
57 4 193
57 5 52
57 6 7
57 7 52
57 8 70
57 9 183
57 10 144
57 11 152
57 12 84
57 13 254
57 14 105
57 15 308
57 16 25
57 17 153
57 18 4
57 19 275
57 20 308
57 21 176
57 22 106
57 23 105
57 24 3
57 25 44
57 26 265
57 27 183
57 28 90
57 29 310
57 30 264
57 31 185
57 32 49
57 33 137
57 34 259
57 35 95
57 36 285
57 37 194
57 38 258
57 39 84
57 40 268
57 41 20
57 42 238
57 43 300
57 44 235
57 45 35
57 46 307
57 47 82
57 48 15
57 49 270
57 50 118
57 51 67
57 52 124
57 53 85
57 54 303
57 55 139
57 56 97
58 0 45
58 1 164
58 2 23
58 3 33
58 4 173
58 5 4
58 6 157
58 7 150
58 8 39
58 9 245
58 10 169
58 11 1
58 12 202
58 13 118
58 14 117
58 15 316
58 16 69
58 17 71
58 18 90
58 19 314
58 20 149
58 21 285
58 22 243
58 23 16
58 24 103
58 25 241
58 26 252
58 27 241
58 28 75
58 29 199
58 30 96
58 31 55
58 32 78
58 33 111
58 34 37
58 35 193
58 36 275
58 37 178
58 38 253
58 39 229
58 40 279
58 41 1
58 42 74
58 43 91
58 44 164
58 45 81
58 46 26
58 47 261
58 48 192
58 49 206
58 50 30
58 51 200
58 52 180
58 53 231
58 54 24
58 55 82
58 56 154
58 57 201
59 0 46
59 1 88
59 2 177
59 3 42
59 4 97
59 5 245
59 6 199
59 7 86
59 8 207
59 9 53
59 10 208
59 11 256
59 12 210
59 13 67
59 14 101
59 15 297
59 16 131
59 17 34
59 18 25
59 19 2
59 20 225
59 21 82
59 22 132
59 23 53
59 24 109
59 25 31
59 26 17
59 27 28
59 28 43
59 29 297
59 30 139
59 31 129
59 32 122
59 33 247
59 34 221
59 35 108
59 36 261
59 37 194
59 38 289
59 39 221
59 40 103
59 41 182
59 42 133
59 43 69
59 44 303
59 45 302
59 46 145
59 47 316
59 48 299
59 49 9
59 50 113
59 51 112
59 52 273
59 53 67
59 54 43
59 55 160
59 56 10
59 57 258
59 58 67
60 0 267
60 1 280
60 2 181
60 3 155
60 4 186
60 5 261
60 6 264
60 7 45
60 8 113
60 9 278
60 10 240
60 11 264
60 12 214
60 13 51
60 14 45
60 15 33
60 16 180
60 17 267
60 18 231
60 19 98
60 20 251
60 21 68
60 22 304
60 23 68
60 24 101
60 25 46
60 26 219
60 27 55
60 28 25
60 29 277
60 30 95
60 31 181
60 32 53
60 33 282
60 34 23
60 35 252
60 36 294
60 37 194
60 38 302
60 39 23
60 40 216
60 41 263
60 42 304
60 43 285
60 44 15
60 45 69
60 46 296
60 47 240
60 48 7
60 49 155
60 50 107
60 51 184
60 52 86
60 53 267
60 54 86
60 55 13
60 56 132
60 57 266
60 58 305
60 59 170
61 0 65
61 1 289
61 2 126
61 3 188
61 4 255
61 5 17
61 6 291
61 7 2
61 8 189
61 9 141
61 10 226
61 11 1
61 12 117
61 13 320
61 14 253
61 15 7
61 16 200
61 17 68
61 18 264
61 19 50
61 20 123
61 21 222
61 22 226
61 23 96
61 24 278
61 25 78
61 26 10
61 27 127
61 28 253
61 29 151
61 30 230
61 31 150
61 32 65
61 33 67
61 34 118
61 35 99
61 36 37
61 37 79
61 38 80
61 39 310
61 40 104
61 41 57
61 42 295
61 43 142
61 44 62
61 45 113
61 46 280
61 47 69
61 48 95
61 49 70
61 50 244
61 51 167
61 52 58
61 53 175
61 54 14
61 55 162
61 56 212
61 57 120
61 58 34
61 59 209
61 60 122
62 0 189
62 1 82
62 2 45
62 3 188
62 4 164
62 5 30
62 6 5
62 7 109
62 8 304
62 9 44
62 10 100
62 11 186
62 12 160
62 13 253
62 14 176
62 15 254
62 16 41
62 17 303
62 18 67
62 19 73
62 20 92
62 21 271
62 22 38
62 23 273
62 24 30
62 25 3
62 26 278
62 27 168
62 28 105
62 29 102
62 30 214
62 31 19
62 32 99
62 33 186
62 34 87
62 35 67
62 36 276
62 37 61
62 38 281
62 39 217
62 40 296
62 41 204
62 42 52
62 43 221
62 44 186
62 45 20
62 46 253
62 47 264
62 48 163
62 49 25
62 50 39
62 51 320
62 52 42
62 53 163
62 54 299
62 55 289
62 56 311
62 57 278
62 58 117
62 59 92
62 60 3
62 61 198
63 0 139
63 1 259
63 2 12
63 3 193
63 4 254
63 5 133
63 6 92
63 7 63
63 8 198
63 9 148
63 10 277
63 11 320
63 12 245
63 13 10
63 14 234
63 15 58
63 16 191
63 17 42
63 18 89
63 19 258
63 20 39
63 21 243
63 22 244
63 23 219
63 24 108
63 25 17
63 26 31
63 27 205
63 28 300
63 29 289
63 30 256
63 31 76
63 32 236
63 33 277
63 34 31
63 35 89
63 36 168
63 37 65
63 38 144
63 39 231
63 40 54
63 41 108
63 42 19
63 43 259
63 44 53
63 45 51
63 46 19
63 47 144
63 48 6
63 49 282
63 50 151
63 51 93
63 52 25
63 53 128
63 54 49
63 55 300
63 56 234
63 57 126
63 58 95
63 59 86
63 60 43
63 61 187
63 62 66
64 0 269
64 1 258
64 2 282
64 3 128
64 4 244
64 5 257
64 6 122
64 7 96
64 8 190
64 9 100
64 10 126
64 11 14
64 12 47
64 13 269
64 14 316
64 15 43
64 16 60
64 17 123
64 18 238
64 19 12
64 20 154
64 21 70
64 22 219
64 23 287
64 24 208
64 25 67
64 26 178
64 27 312
64 28 244
64 29 251
64 30 311
64 31 164
64 32 221
64 33 312
64 34 25
64 35 31
64 36 186
64 37 50
64 38 232
64 39 236
64 40 8
64 41 115
64 42 106
64 43 80
64 44 237
64 45 121
64 46 296
64 47 200
64 48 281
64 49 305
64 50 12
64 51 157
64 52 85
64 53 252
64 54 137
64 55 276
64 56 49
64 57 66
64 58 272
64 59 245
64 60 114
64 61 205
64 62 92
64 63 143
65 0 251
65 1 111
65 2 128
65 3 74
65 4 248
65 5 306
65 6 39
65 7 84
65 8 244
65 9 255
65 10 197
65 11 217
65 12 42
65 13 37
65 14 15
65 15 313
65 16 108
65 17 183
65 18 281
65 19 183
65 20 199
65 21 224
65 22 207
65 23 270
65 24 288
65 25 53
65 26 141
65 27 60
65 28 217
65 29 15
65 30 159
65 31 265
65 32 11
65 33 138
65 34 218
65 35 128
65 36 17
65 37 23
65 38 239
65 39 201
65 40 78
65 41 300
65 42 204
65 43 173
65 44 261
65 45 259
65 46 78
65 47 16
65 48 274
65 49 108
65 50 111
65 51 287
65 52 251
65 53 61
65 54 225
65 55 72
65 56 196
65 57 61
65 58 153
65 59 100
65 60 286
65 61 186
65 62 146
65 63 72
65 64 132
66 0 261
66 1 253
66 2 131
66 3 308
66 4 170
66 5 65
66 6 165
66 7 245
66 8 186
66 9 276
66 10 294
66 11 132
66 12 89
66 13 120
66 14 252
66 15 119
66 16 76
66 17 205
66 18 199
66 19 127
66 20 156
66 21 154
66 22 203
66 23 139
66 24 223
66 25 89
66 26 128
66 27 276
66 28 231
66 29 21
66 30 197
66 31 34
66 32 261
66 33 253
66 34 297
66 35 10
66 36 53
66 37 219
66 38 52
66 39 198
66 40 215
66 41 316
66 42 137
66 43 261
66 44 23
66 45 138
66 46 277
66 47 195
66 48 265
66 49 73
66 50 30
66 51 212
66 52 144
66 53 167
66 54 191
66 55 33
66 56 21
66 57 150
66 58 185
66 59 95
66 60 160
66 61 143
66 62 14
66 63 214
66 64 42
66 65 32
67 0 45
67 1 297
67 2 90
67 3 42
67 4 15
67 5 84
67 6 306
67 7 34
67 8 276
67 9 113
67 10 38
67 11 220
67 12 113
67 13 81
67 14 280
67 15 5
67 16 162
67 17 163
67 18 76
67 19 65
67 20 63
67 21 29
67 22 102
67 23 45
67 24 154
67 25 296
67 26 50
67 27 22
67 28 85
67 29 61
67 30 163
67 31 204
67 32 134
67 33 200
67 34 98
67 35 122
67 36 166
67 37 153
67 38 203
67 39 273
67 40 275
67 41 299
67 42 124
67 43 276
67 44 117
67 45 27
67 46 4
67 47 155
67 48 179
67 49 237
67 50 308
67 51 279
67 52 232
67 53 244
67 54 241
67 55 5
67 56 290
67 57 204
67 58 256
67 59 299
67 60 135
67 61 144
67 62 125
67 63 318
67 64 305
67 65 175
67 66 143
68 0 108
68 1 153
68 2 163
68 3 5
68 4 183
68 5 176
68 6 70
68 7 172
68 8 86
68 9 233
68 10 49
68 11 129
68 12 275
68 13 37
68 14 61
68 15 109
68 16 5
68 17 110
68 18 174
68 19 194
68 20 190
68 21 157
68 22 207
68 23 19
68 24 227
68 25 218
68 26 18
68 27 181
68 28 185
68 29 140
68 30 234
68 31 112
68 32 36
68 33 4
68 34 77
68 35 58
68 36 147
68 37 73
68 38 244
68 39 186
68 40 311
68 41 197
68 42 298
68 43 124
68 44 88
68 45 272
68 46 283
68 47 115
68 48 133
68 49 236
68 50 20
68 51 230
68 52 99
68 53 108
68 54 205
68 55 238
68 56 287
68 57 287
68 58 200
68 59 272
68 60 247
68 61 225
68 62 314
68 63 239
68 64 62
68 65 21
68 66 109
68 67 204
69 0 234
69 1 315
69 2 57
69 3 173
69 4 305
69 5 74
69 6 149
69 7 49
69 8 289
69 9 293
69 10 62
69 11 294
69 12 97
69 13 248
69 14 101
69 15 55
69 16 224
69 17 223
69 18 303
69 19 158
69 20 318
69 21 86
69 22 296
69 23 226
69 24 29
69 25 122
69 26 7
69 27 40
69 28 190
69 29 30
69 30 134
69 31 311
69 32 248
69 33 123
69 34 94
69 35 29
69 36 82
69 37 140
69 38 170
69 39 119
69 40 45
69 41 190
69 42 318
69 43 161
69 44 164
69 45 50
69 46 262
69 47 311
69 48 173
69 49 195
69 50 218
69 51 143
69 52 201
69 53 2
69 54 10
69 55 301
69 56 109
69 57 181
69 58 211
69 59 121
69 60 3
69 61 228
69 62 60
69 63 162
69 64 96
69 65 35
69 66 96
69 67 76
69 68 47
